data/lp_files/pEFS/44_9.lp
\ Model foo
\ LP format - for model browsing. Use MPS format to capture full model detail.
Minimize
  z
Subject To
 allocateEach[1]: x[1,1] + x[2,1] + x[3,1] = 1
 allocateEach[2]: x[1,2] + x[2,2] + x[3,2] = 1
 allocateEach[3]: x[1,3] + x[2,3] + x[3,3] = 1
 allocateEach[4]: x[1,4] + x[2,4] + x[3,4] = 1
 allocateAllCash: cashProportion[1] + cashProportion[2] + cashProportion[3]
   = 1
 findWorstP[1,2]: z + 0.2501000400160064 cashProportion[1]
   - 0.2501000400160064 cashProportion[2] + 0.1740946378551421 x[1,1]
   + 0.1732943177270908 x[1,2] + 0.2303171268507403 x[1,3]
   + 0.1721938775510204 x[1,4] - 0.1740946378551421 x[2,1]
   - 0.1732943177270908 x[2,2] - 0.2303171268507403 x[2,3]
   - 0.1721938775510204 x[2,4] >= 0
 findWorstP[1,3]: z + 0.2501000400160064 cashProportion[1]
   - 0.2501000400160064 cashProportion[3] + 0.1740946378551421 x[1,1]
   + 0.1732943177270908 x[1,2] + 0.2303171268507403 x[1,3]
   + 0.1721938775510204 x[1,4] - 0.1740946378551421 x[3,1]
   - 0.1732943177270908 x[3,2] - 0.2303171268507403 x[3,3]
   - 0.1721938775510204 x[3,4] >= 0
 findWorstP[2,1]: z - 0.239268794563813 cashProportion[1]
   + 0.239268794563813 cashProportion[2] - 0.1832798966358807 x[1,1]
   - 0.2290759439153945 x[1,2] - 0.2265636215724745 x[1,3]
   - 0.1218117433124372 x[1,4] + 0.1832798966358807 x[2,1]
   + 0.2290759439153945 x[2,2] + 0.2265636215724745 x[2,3]
   + 0.1218117433124372 x[2,4] >= 0
 findWorstP[2,3]: z + 0.239268794563813 cashProportion[2]
   - 0.239268794563813 cashProportion[3] + 0.1832798966358807 x[2,1]
   + 0.2290759439153945 x[2,2] + 0.2265636215724745 x[2,3]
   + 0.1218117433124372 x[2,4] - 0.1832798966358807 x[3,1]
   - 0.2290759439153945 x[3,2] - 0.2265636215724745 x[3,3]
   - 0.1218117433124372 x[3,4] >= 0
 findWorstP[3,1]: z - 0.2839295854628053 cashProportion[1]
   + 0.2839295854628053 cashProportion[3] - 0.0708404315729699 x[1,1]
   - 0.1689948892674616 x[1,2] - 0.2001419647927314 x[1,3]
   - 0.2760931289040318 x[1,4] + 0.0708404315729699 x[3,1]
   + 0.1689948892674616 x[3,2] + 0.2001419647927314 x[3,3]
   + 0.2760931289040318 x[3,4] >= 0
 findWorstP[3,2]: z - 0.2839295854628053 cashProportion[2]
   + 0.2839295854628053 cashProportion[3] - 0.0708404315729699 x[2,1]
   - 0.1689948892674616 x[2,2] - 0.2001419647927314 x[2,3]
   - 0.2760931289040318 x[2,4] + 0.0708404315729699 x[3,1]
   + 0.1689948892674616 x[3,2] + 0.2001419647927314 x[3,3]
   + 0.2760931289040318 x[3,4] >= 0
Bounds
 z <= 1
 -infinity <= cashProportion[1] <= 1
 -infinity <= cashProportion[2] <= 1
 -infinity <= cashProportion[3] <= 1
Binaries
 x[1,1] x[1,2] x[1,3] x[1,4] x[2,1] x[2,2] x[2,3] x[2,4] x[3,1] x[3,2]
 x[3,3] x[3,4]
End
